<number of tasks>
35

<cycle time>
25

<task times>
1 1
2 2
3 3
4 4
5 5
6 3
7 2
8 4
9 6
10 3
11 2
12 4
13 5
14 3
15 6
16 2
17 4
18 3
19 5
20 2
21 4
22 6
23 3
24 5
25 2
26 4
27 3
28 6
29 2
30 5
31 3
32 4
33 2
34 6
35 3

<precedence relations>
2,1
3,1
4,2
5,2
6,3
7,3
8,4
9,5
10,6
11,7
12,8
13,9
14,10
15,11
16,12
17,13
18,14
19,15
20,16
21,17
22,18
23,19
24,20
25,21
26,22
27,23
28,24
29,25
30,26
31,27
32,28
33,29
34,30
35,31
12,7
13,8
14,9
15,10
18,13
20,15
22,17
24,19
26,21
28,23
30,25
32,27
34,29
35,33

<setup times forward>
1,2:1
1,3:2
1,4:2
1,5:2
1,6:3
2,4:1
2,5:2
2,6:2
2,7:2
2,8:3
3,6:1
3,7:2
3,8:2
3,9:3
4,8:1
4,9:2
4,10:2
5,9:1
5,10:2
5,11:2
6,10:1
6,11:2
6,12:2
7,11:1
7,12:1
7,13:2
8,12:2
8,13:2
8,14:2
9,13:1
9,14:2
9,15:2
10,14:1
10,15:1
10,16:2
11,15:2
11,16:2
11,17:2
12,16:1
12,17:2
12,18:2
13,17:2
13,18:1
13,19:2
14,18:1
14,19:2
14,20:2
15,19:1
15,20:1
15,21:2
16,20:2
16,21:2
16,22:2
17,21:1
17,22:1
17,23:2
18,22:2
18,23:1
18,24:2
19,23:1
19,24:1
19,25:2
20,24:1
20,25:1
20,26:2
21,25:2
21,26:1
21,27:2
22,26:1
22,27:2
22,28:1
23,27:2
23,28:1
23,29:2
24,28:1
24,29:1
24,30:2
25,29:1
25,30:1
25,31:2
26,30:2
26,31:1
26,32:2
27,31:1
27,32:1
27,33:2
28,32:2
28,33:1
28,34:2
29,33:1
29,34:1
29,35:2
30,34:1
30,35:1
31,32:1
31,35:2
32,33:1
33,34:1
34,35:1
30,31:1
30,32:2
31,33:1
32,34:2
33,35:1

<setup times backward>
2,1:2
3,1:3
4,1:4
4,2:3
5,1:4
5,2:4
6,1:5
6,2:4
6,3:3
7,2:4
7,3:4
8,2:5
8,3:4
8,4:3
9,3:5
9,4:4
9,5:3
10,4:4
10,5:4
10,6:3
11,5:4
11,6:4
11,7:2
12,6:4
12,7:3
12,8:3
13,7:4
13,8:4
13,9:2
14,8:4
14,9:4
14,10:3
15,9:4
15,10:3
15,11:2
16,10:4
16,11:4
16,12:3
17,11:4
17,12:4
17,13:2
18,12:4
18,13:3
18,14:3
19,13:4
19,14:4
19,15:2
20,14:4
20,15:3
20,16:3
21,15:4
21,16:4
21,17:2
22,16:4
22,17:3
22,18:3
23,17:4
23,18:3
23,19:2
24,18:4
24,19:3
24,20:3
25,19:4
25,20:3
25,21:2
26,20:4
26,21:3
26,22:3
27,21:4
27,22:4
27,23:2
28,22:3
28,23:3
28,24:3
29,23:4
29,24:3
29,25:2
30,24:4
30,25:3
30,26:3
31,25:4
31,26:3
31,27:2
32,26:4
32,27:3
32,28:3
33,27:4
33,28:3
33,29:2
34,28:4
34,29:3
34,30:3
35,29:4
35,30:3
35,31:2
35,33:3
32,29:3
33,30:3
34,31:3
35,32:3
35,34:3
